100
1000
200
200
199
199
199
199
199
199
199
199
198
198
198
196
195
194
194
193
193
191
191
190
189
188
187
187
187
186
185
185
185
184
183
183
182
181
180
180
180
180
179
179
179
179
178
178
177
177
177
176
176
176
174
174
173
173
172
172
172
172
171
171
170
169
169
168
168
167
166
166
165
165
165
165
164
163
162
162
162
162
161
161
161
161
160
160
160
159
159
159
158
158
157
154
154
153
153
152
151
150
